\ This file has been generated by DOcplex
\ ENCODING=ISO-8859-1
\Problem name: Qrandom21542_6.lp

Minimize
 obj: - 3196 x0 - 1598 x1 - 799 x2 - 3192 x3 - 1596 x4 - 798 x5 + [ 1824 x0^2
      + 1824 x0*x1 + 912 x0*x2 + 3648 x0*x3 + 1824 x0*x4 + 912 x0*x5 + 456 x1^2
      + 456 x1*x2 + 1824 x1*x3 + 912 x1*x4 + 456 x1*x5 + 114 x2^2 + 912 x2*x3
      + 456 x2*x4 + 228 x2*x5 + 1856 x3^2 + 1856 x3*x4 + 928 x3*x5 + 464 x4^2
      + 464 x4*x5 + 116 x5^2 ]/2 + 2793
Subject To

Bounds
 0 <= x0 <= 1
 0 <= x1 <= 1
 0 <= x2 <= 1
 0 <= x3 <= 1
 0 <= x4 <= 1
 0 <= x5 <= 1

Binaries
 x0 x1 x2 x3 x4 x5
End
